p cnf 17 20
-1 -2 15 0 
-3 16 0 
-4 8 17 0 
-2 -5 15 0 
-4 8 -6 17 0 
-7 -8 4 15 0 
-8 4 15 0 
-9 16 0 
-2 15 0 
-10 -11 15 0 
-9 17 0 
-11 15 0 
-12 15 0 
-4 8 16 0 
-13 -2 15 0 
-1 -9 16 0 
-14 -2 15 0 
-11 16 0 
-2 16 0 
-9 15 0 
